(set-logic QF_NRA)
(set-info :source |Benchmarks generated from hycomp (https://es-static.fbk.eu/tools/hycomp/). BMC instances of non-linear hybrid automata taken from: Alessandro Cimatti, Sergio Mover, Stefano Tonetta, A quantifier-free SMT encoding of non-linear hybrid automata, FMCAD 2012 and Alessandro Cimatti, Sergio Mover, Stefano Tonetta, Quantier-free encoding of invariants for Hybrid Systems, Formal Methods in System Design. This instance solves a BMC problem of depth 4 and uses the quantifier free encoding with equivalences encoding. Contacts: Sergio Mover (mover@fbk.eu), Stefano Tonetta (tonettas@fbk.eu), Alessandro Cimatti (cimatti@fbk.eu).|)
(set-info :smt-lib-version 2.0)
(set-info :category "industrial")
(set-info :status unsat)
;; MathSAT API call trace
;; generated on Mon Mar 19 10:36:35 2012
(declare-fun b.event_is_timed__AT4 () Bool)
(declare-fun b.y__AT0 () Real)
(declare-fun b.counter.0__AT0 () Bool)
(declare-fun b.event_is_timed__AT3 () Bool)
(declare-fun b.y__AT4 () Real)
(declare-fun b.EVENT.0__AT0 () Bool)
(declare-fun b.counter.3__AT0 () Bool)
(declare-fun b.counter.1__AT0 () Bool)
(declare-fun b.event_is_timed__AT1 () Bool)
(declare-fun b.time__AT4 () Real)
(declare-fun b.counter.0__AT4 () Bool)
(declare-fun b.bool_atom__AT1 () Bool)
(declare-fun b.delta__AT4 () Real)
(declare-fun b.counter.1__AT4 () Bool)
(declare-fun b.x__AT4 () Real)
(declare-fun b.y__AT3 () Real)
(declare-fun b.EVENT.0__AT4 () Bool)
(declare-fun b.counter.2__AT4 () Bool)
(declare-fun b.counter.0__AT3 () Bool)
(declare-fun b.EVENT.1__AT4 () Bool)
(declare-fun b.counter.3__AT4 () Bool)
(declare-fun b.counter.1__AT3 () Bool)
(declare-fun b.bool_atom__AT4 () Bool)
(declare-fun b.g__AT0 () Real)
(declare-fun b.x__AT3 () Real)
(declare-fun b.speed_y__AT0 () Real)
(declare-fun b.counter.2__AT3 () Bool)
(declare-fun b.x__AT1 () Real)
(declare-fun b.EVENT.1__AT3 () Bool)
(declare-fun b.counter.3__AT3 () Bool)
(declare-fun b.speed_y__AT4 () Real)
(declare-fun b.y__AT1 () Real)
(declare-fun b.event_is_timed__AT2 () Bool)
(declare-fun b.counter.2__AT0 () Bool)
(declare-fun b.bool_atom__AT3 () Bool)
(declare-fun b.counter.0__AT1 () Bool)
(declare-fun b.counter.1__AT1 () Bool)
(declare-fun b.speed_y__AT3 () Real)
(declare-fun b.counter.2__AT1 () Bool)
(declare-fun b.bool_atom__AT2 () Bool)
(declare-fun b.y__AT2 () Real)
(declare-fun b.event_is_timed__AT0 () Bool)
(declare-fun b.time__AT3 () Real)
(declare-fun b.counter.3__AT1 () Bool)
(declare-fun b.time__AT2 () Real)
(declare-fun b.bool_atom__AT0 () Bool)
(declare-fun b.delta__AT3 () Real)
(declare-fun b.x__AT0 () Real)
(declare-fun b.delta__AT2 () Real)
(declare-fun b.EVENT.0__AT3 () Bool)
(declare-fun b.counter.0__AT2 () Bool)
(declare-fun b.x__AT2 () Real)
(declare-fun b.EVENT.0__AT2 () Bool)
(declare-fun b.delta__AT1 () Real)
(declare-fun b.counter.1__AT2 () Bool)
(declare-fun b.speed_y__AT1 () Real)
(declare-fun b.EVENT.1__AT2 () Bool)
(declare-fun b.time__AT1 () Real)
(declare-fun b.EVENT.0__AT1 () Bool)
(declare-fun b.counter.2__AT2 () Bool)
(declare-fun b.time__AT0 () Real)
(declare-fun b.EVENT.1__AT1 () Bool)
(declare-fun b.counter.3__AT2 () Bool)
(declare-fun b.delta__AT0 () Real)
(declare-fun b.speed_y__AT2 () Real)
(declare-fun b.EVENT.1__AT0 () Bool)
(assert (let ((.def_72 (* (- 1.0) b.g__AT0)))
(let ((.def_75 (* (/ 1 2) .def_72)))
(let ((.def_88 (* 2.0 .def_75)))
(let ((.def_833 (* .def_88 b.delta__AT4)))
(let ((.def_834 (+ b.speed_y__AT4 .def_833)))
(let ((.def_838 (<= .def_834 0.0 )))
(let ((.def_837 (<= b.speed_y__AT4 0.0 )))
(let ((.def_839 (and .def_837 .def_838)))
(let ((.def_835 (<= 0.0 .def_834)))
(let ((.def_832 (<= 0.0 b.speed_y__AT4)))
(let ((.def_836 (and .def_832 .def_835)))
(let ((.def_840 (or .def_836 .def_839)))
(let ((.def_823 (* b.speed_y__AT4 b.delta__AT4)))
(let ((.def_821 (* b.delta__AT4 b.delta__AT4)))
(let ((.def_822 (* .def_75 .def_821)))
(let ((.def_824 (+ .def_822 .def_823)))
(let ((.def_805 (* (- 1.0) b.x__AT4)))
(let ((.def_806 (* b.x__AT4 .def_805)))
(let ((.def_825 (* (- 1.0) .def_806)))
(let ((.def_828 (+ .def_825 .def_824)))
(let ((.def_829 (+ b.y__AT4 .def_828)))
(let ((.def_830 (<= 0.0 .def_829)))
(let ((.def_807 (<= .def_806 b.y__AT4)))
(let ((.def_831 (and .def_807 .def_830)))
(let ((.def_841 (and .def_831 .def_840)))
(let ((.def_64 (<= b.g__AT0 10.0 )))
(let ((.def_63 (<= 8.0 b.g__AT0)))
(let ((.def_65 (and .def_63 .def_64)))
(let ((.def_842 (and .def_65 .def_841)))
(let ((.def_542 (not b.counter.0__AT3)))
(let ((.def_532 (not b.counter.1__AT3)))
(let ((.def_812 (and .def_532 .def_542)))
(let ((.def_816 (or b.counter.3__AT3 .def_812)))
(let ((.def_813 (or b.counter.2__AT3 .def_812)))
(let ((.def_537 (not b.counter.2__AT3)))
(let ((.def_811 (or .def_532 .def_537)))
(let ((.def_814 (and .def_811 .def_813)))
(let ((.def_551 (not b.counter.3__AT3)))
(let ((.def_815 (or .def_551 .def_814)))
(let ((.def_817 (and .def_815 .def_816)))
(let ((.def_808 (and .def_65 .def_807)))
(let ((.def_802 (not b.EVENT.0__AT4)))
(let ((.def_800 (not b.EVENT.1__AT4)))
(let ((.def_803 (or .def_800 .def_802)))
(let ((.def_9 (not b.counter.0__AT4)))
(let ((.def_6 (not b.counter.1__AT4)))
(let ((.def_793 (or .def_6 .def_9)))
(let ((.def_797 (or b.counter.3__AT4 .def_793)))
(let ((.def_794 (or b.counter.2__AT4 .def_793)))
(let ((.def_4 (not b.counter.2__AT4)))
(let ((.def_792 (or .def_4 .def_9)))
(let ((.def_795 (and .def_792 .def_794)))
(let ((.def_14 (not b.counter.3__AT4)))
(let ((.def_796 (or .def_14 .def_795)))
(let ((.def_798 (and .def_796 .def_797)))
(let ((.def_804 (and .def_798 .def_803)))
(let ((.def_809 (and .def_804 .def_808)))
(let ((.def_787 (<= 0.0 b.delta__AT3)))
(let ((.def_622 (not b.EVENT.0__AT3)))
(let ((.def_620 (not b.EVENT.1__AT3)))
(let ((.def_664 (and .def_620 .def_622)))
(let ((.def_666 (not .def_664)))
(let ((.def_788 (or .def_666 .def_787)))
(let ((.def_789 (or b.EVENT.1__AT3 .def_788)))
(let ((.def_701 (= b.bool_atom__AT3 b.bool_atom__AT4)))
(let ((.def_697 (= b.counter.0__AT4 b.counter.0__AT3)))
(let ((.def_695 (= b.counter.1__AT4 b.counter.1__AT3)))
(let ((.def_693 (= b.counter.2__AT4 b.counter.2__AT3)))
(let ((.def_692 (= b.counter.3__AT4 b.counter.3__AT3)))
(let ((.def_694 (and .def_692 .def_693)))
(let ((.def_696 (and .def_694 .def_695)))
(let ((.def_698 (and .def_696 .def_697)))
(let ((.def_783 (and .def_698 .def_701)))
(let ((.def_784 (or .def_666 .def_783)))
(let ((.def_785 (or b.EVENT.1__AT3 .def_784)))
(let ((.def_772 (* .def_72 b.delta__AT3)))
(let ((.def_773 (* (- 1.0) b.speed_y__AT4)))
(let ((.def_776 (+ .def_773 .def_772)))
(let ((.def_777 (+ b.speed_y__AT3 .def_776)))
(let ((.def_778 (= .def_777 0.0 )))
(let ((.def_763 (* (- 1.0) b.y__AT4)))
(let ((.def_643 (* b.speed_y__AT3 b.delta__AT3)))
(let ((.def_767 (+ .def_643 .def_763)))
(let ((.def_641 (* b.delta__AT3 b.delta__AT3)))
(let ((.def_642 (* .def_75 .def_641)))
(let ((.def_768 (+ .def_642 .def_767)))
(let ((.def_769 (+ b.y__AT3 .def_768)))
(let ((.def_770 (= .def_769 0.0 )))
(let ((.def_684 (= b.x__AT3 b.x__AT4)))
(let ((.def_771 (and .def_684 .def_770)))
(let ((.def_779 (and .def_771 .def_778)))
(let ((.def_780 (or .def_666 .def_779)))
(let ((.def_687 (= b.y__AT3 b.y__AT4)))
(let ((.def_758 (and .def_684 .def_687)))
(let ((.def_690 (= b.speed_y__AT3 b.speed_y__AT4)))
(let ((.def_759 (and .def_690 .def_758)))
(let ((.def_755 (= b.delta__AT3 0.0 )))
(let ((.def_756 (and .def_664 .def_755)))
(let ((.def_757 (not .def_756)))
(let ((.def_760 (or .def_757 .def_759)))
(let ((.def_761 (or b.EVENT.1__AT3 .def_760)))
(let ((.def_748 (and .def_690 .def_698)))
(let ((.def_749 (or b.bool_atom__AT3 .def_748)))
(let ((.def_724 (or .def_9 b.counter.0__AT3)))
(let ((.def_723 (or b.counter.0__AT4 .def_542)))
(let ((.def_725 (and .def_723 .def_724)))
(let ((.def_726 (and .def_6 .def_725)))
(let ((.def_727 (or b.counter.1__AT3 .def_726)))
(let ((.def_722 (or b.counter.1__AT4 .def_532)))
(let ((.def_728 (and .def_722 .def_727)))
(let ((.def_739 (and .def_4 .def_728)))
(let ((.def_740 (or b.counter.2__AT3 .def_739)))
(let ((.def_734 (and .def_6 .def_542)))
(let ((.def_735 (or b.counter.1__AT3 .def_734)))
(let ((.def_736 (and .def_722 .def_735)))
(let ((.def_737 (and b.counter.2__AT4 .def_736)))
(let ((.def_738 (or .def_537 .def_737)))
(let ((.def_741 (and .def_738 .def_740)))
(let ((.def_742 (and b.counter.3__AT4 .def_741)))
(let ((.def_743 (or b.counter.3__AT3 .def_742)))
(let ((.def_729 (and b.counter.2__AT4 .def_728)))
(let ((.def_730 (or b.counter.2__AT3 .def_729)))
(let ((.def_718 (or b.counter.1__AT4 b.counter.1__AT3)))
(let ((.def_716 (and .def_6 b.counter.0__AT4)))
(let ((.def_717 (or .def_532 .def_716)))
(let ((.def_719 (and .def_717 .def_718)))
(let ((.def_720 (and .def_4 .def_719)))
(let ((.def_721 (or .def_537 .def_720)))
(let ((.def_731 (and .def_721 .def_730)))
(let ((.def_732 (and .def_14 .def_731)))
(let ((.def_733 (or .def_551 .def_732)))
(let ((.def_744 (and .def_733 .def_743)))
(let ((.def_713 (* b.speed_y__AT4 b.speed_y__AT4)))
(let ((.def_529 (* b.speed_y__AT3 b.speed_y__AT3)))
(let ((.def_714 (= .def_529 .def_713)))
(let ((.def_711 (+ b.speed_y__AT3 b.speed_y__AT4)))
(let ((.def_712 (= .def_711 0.0 )))
(let ((.def_715 (and .def_712 .def_714)))
(let ((.def_745 (and .def_715 .def_744)))
(let ((.def_710 (not b.bool_atom__AT3)))
(let ((.def_746 (or .def_710 .def_745)))
(let ((.def_652 (<= 0.0 b.speed_y__AT3)))
(let ((.def_707 (not .def_652)))
(let ((.def_625 (* (- 1.0) b.x__AT3)))
(let ((.def_626 (* b.x__AT3 .def_625)))
(let ((.def_706 (= b.y__AT3 .def_626)))
(let ((.def_708 (and .def_706 .def_707)))
(let ((.def_709 (= b.bool_atom__AT3 .def_708)))
(let ((.def_747 (and .def_709 .def_746)))
(let ((.def_750 (and .def_747 .def_749)))
(let ((.def_751 (and .def_684 .def_750)))
(let ((.def_752 (and .def_687 .def_751)))
(let ((.def_753 (or .def_664 .def_752)))
(let ((.def_754 (or b.EVENT.1__AT3 .def_753)))
(let ((.def_762 (and .def_754 .def_761)))
(let ((.def_781 (and .def_762 .def_780)))
(let ((.def_671 (= b.time__AT3 b.time__AT4)))
(let ((.def_685 (and .def_671 .def_684)))
(let ((.def_688 (and .def_685 .def_687)))
(let ((.def_691 (and .def_688 .def_690)))
(let ((.def_699 (and .def_691 .def_698)))
(let ((.def_702 (and .def_699 .def_701)))
(let ((.def_703 (or .def_620 .def_702)))
(let ((.def_674 (* (- 1.0) b.time__AT4)))
(let ((.def_677 (+ b.delta__AT3 .def_674)))
(let ((.def_678 (+ b.time__AT3 .def_677)))
(let ((.def_679 (= .def_678 0.0 )))
(let ((.def_680 (or .def_666 .def_679)))
(let ((.def_681 (or b.EVENT.1__AT3 .def_680)))
(let ((.def_672 (or .def_664 .def_671)))
(let ((.def_673 (or b.EVENT.1__AT3 .def_672)))
(let ((.def_682 (and .def_673 .def_681)))
(let ((.def_704 (and .def_682 .def_703)))
(let ((.def_668 (= .def_666 b.event_is_timed__AT4)))
(let ((.def_665 (= b.event_is_timed__AT3 .def_664)))
(let ((.def_669 (and .def_665 .def_668)))
(let ((.def_705 (and .def_669 .def_704)))
(let ((.def_782 (and .def_705 .def_781)))
(let ((.def_786 (and .def_782 .def_785)))
(let ((.def_790 (and .def_786 .def_789)))
(let ((.def_791 (and .def_620 .def_790)))
(let ((.def_810 (and .def_791 .def_809)))
(let ((.def_818 (and .def_810 .def_817)))
(let ((.def_653 (* .def_88 b.delta__AT3)))
(let ((.def_654 (+ b.speed_y__AT3 .def_653)))
(let ((.def_658 (<= .def_654 0.0 )))
(let ((.def_657 (<= b.speed_y__AT3 0.0 )))
(let ((.def_659 (and .def_657 .def_658)))
(let ((.def_655 (<= 0.0 .def_654)))
(let ((.def_656 (and .def_652 .def_655)))
(let ((.def_660 (or .def_656 .def_659)))
(let ((.def_644 (+ .def_642 .def_643)))
(let ((.def_645 (* (- 1.0) .def_626)))
(let ((.def_648 (+ .def_645 .def_644)))
(let ((.def_649 (+ b.y__AT3 .def_648)))
(let ((.def_650 (<= 0.0 .def_649)))
(let ((.def_627 (<= .def_626 b.y__AT3)))
(let ((.def_651 (and .def_627 .def_650)))
(let ((.def_661 (and .def_651 .def_660)))
(let ((.def_662 (and .def_65 .def_661)))
(let ((.def_354 (not b.counter.0__AT2)))
(let ((.def_344 (not b.counter.1__AT2)))
(let ((.def_632 (and .def_344 .def_354)))
(let ((.def_636 (or b.counter.3__AT2 .def_632)))
(let ((.def_633 (or b.counter.2__AT2 .def_632)))
(let ((.def_349 (not b.counter.2__AT2)))
(let ((.def_631 (or .def_344 .def_349)))
(let ((.def_634 (and .def_631 .def_633)))
(let ((.def_363 (not b.counter.3__AT2)))
(let ((.def_635 (or .def_363 .def_634)))
(let ((.def_637 (and .def_635 .def_636)))
(let ((.def_628 (and .def_65 .def_627)))
(let ((.def_623 (or .def_620 .def_622)))
(let ((.def_613 (or .def_532 .def_542)))
(let ((.def_617 (or b.counter.3__AT3 .def_613)))
(let ((.def_614 (or b.counter.2__AT3 .def_613)))
(let ((.def_612 (or .def_537 .def_542)))
(let ((.def_615 (and .def_612 .def_614)))
(let ((.def_616 (or .def_551 .def_615)))
(let ((.def_618 (and .def_616 .def_617)))
(let ((.def_624 (and .def_618 .def_623)))
(let ((.def_629 (and .def_624 .def_628)))
(let ((.def_607 (<= 0.0 b.delta__AT2)))
(let ((.def_434 (not b.EVENT.0__AT2)))
(let ((.def_432 (not b.EVENT.1__AT2)))
(let ((.def_476 (and .def_432 .def_434)))
(let ((.def_478 (not .def_476)))
(let ((.def_608 (or .def_478 .def_607)))
(let ((.def_609 (or b.EVENT.1__AT2 .def_608)))
(let ((.def_517 (= b.bool_atom__AT2 b.bool_atom__AT3)))
(let ((.def_513 (= b.counter.0__AT2 b.counter.0__AT3)))
(let ((.def_510 (= b.counter.1__AT2 b.counter.1__AT3)))
(let ((.def_507 (= b.counter.2__AT2 b.counter.2__AT3)))
(let ((.def_505 (= b.counter.3__AT2 b.counter.3__AT3)))
(let ((.def_508 (and .def_505 .def_507)))
(let ((.def_511 (and .def_508 .def_510)))
(let ((.def_514 (and .def_511 .def_513)))
(let ((.def_603 (and .def_514 .def_517)))
(let ((.def_604 (or .def_478 .def_603)))
(let ((.def_605 (or b.EVENT.1__AT2 .def_604)))
(let ((.def_592 (* .def_72 b.delta__AT2)))
(let ((.def_593 (* (- 1.0) b.speed_y__AT3)))
(let ((.def_596 (+ .def_593 .def_592)))
(let ((.def_597 (+ b.speed_y__AT2 .def_596)))
(let ((.def_598 (= .def_597 0.0 )))
(let ((.def_583 (* (- 1.0) b.y__AT3)))
(let ((.def_455 (* b.speed_y__AT2 b.delta__AT2)))
(let ((.def_587 (+ .def_455 .def_583)))
(let ((.def_453 (* b.delta__AT2 b.delta__AT2)))
(let ((.def_454 (* .def_75 .def_453)))
(let ((.def_588 (+ .def_454 .def_587)))
(let ((.def_589 (+ b.y__AT2 .def_588)))
(let ((.def_590 (= .def_589 0.0 )))
(let ((.def_496 (= b.x__AT2 b.x__AT3)))
(let ((.def_591 (and .def_496 .def_590)))
(let ((.def_599 (and .def_591 .def_598)))
(let ((.def_600 (or .def_478 .def_599)))
(let ((.def_499 (= b.y__AT2 b.y__AT3)))
(let ((.def_578 (and .def_496 .def_499)))
(let ((.def_502 (= b.speed_y__AT2 b.speed_y__AT3)))
(let ((.def_579 (and .def_502 .def_578)))
(let ((.def_575 (= b.delta__AT2 0.0 )))
(let ((.def_576 (and .def_476 .def_575)))
(let ((.def_577 (not .def_576)))
(let ((.def_580 (or .def_577 .def_579)))
(let ((.def_581 (or b.EVENT.1__AT2 .def_580)))
(let ((.def_568 (and .def_502 .def_514)))
(let ((.def_569 (or b.bool_atom__AT2 .def_568)))
(let ((.def_543 (or b.counter.0__AT2 .def_542)))
(let ((.def_541 (or .def_354 b.counter.0__AT3)))
(let ((.def_544 (and .def_541 .def_543)))
(let ((.def_545 (and .def_532 .def_544)))
(let ((.def_546 (or b.counter.1__AT2 .def_545)))
(let ((.def_540 (or .def_344 b.counter.1__AT3)))
(let ((.def_547 (and .def_540 .def_546)))
(let ((.def_559 (and .def_537 .def_547)))
(let ((.def_560 (or b.counter.2__AT2 .def_559)))
(let ((.def_554 (and .def_354 .def_532)))
(let ((.def_555 (or b.counter.1__AT2 .def_554)))
(let ((.def_556 (and .def_540 .def_555)))
(let ((.def_557 (and b.counter.2__AT3 .def_556)))
(let ((.def_558 (or .def_349 .def_557)))
(let ((.def_561 (and .def_558 .def_560)))
(let ((.def_562 (and b.counter.3__AT3 .def_561)))
(let ((.def_563 (or b.counter.3__AT2 .def_562)))
(let ((.def_548 (and b.counter.2__AT3 .def_547)))
(let ((.def_549 (or b.counter.2__AT2 .def_548)))
(let ((.def_535 (or b.counter.1__AT2 b.counter.1__AT3)))
(let ((.def_533 (and b.counter.0__AT3 .def_532)))
(let ((.def_534 (or .def_344 .def_533)))
(let ((.def_536 (and .def_534 .def_535)))
(let ((.def_538 (and .def_536 .def_537)))
(let ((.def_539 (or .def_349 .def_538)))
(let ((.def_550 (and .def_539 .def_549)))
(let ((.def_552 (and .def_550 .def_551)))
(let ((.def_553 (or .def_363 .def_552)))
(let ((.def_564 (and .def_553 .def_563)))
(let ((.def_341 (* b.speed_y__AT2 b.speed_y__AT2)))
(let ((.def_530 (= .def_341 .def_529)))
(let ((.def_527 (+ b.speed_y__AT2 b.speed_y__AT3)))
(let ((.def_528 (= .def_527 0.0 )))
(let ((.def_531 (and .def_528 .def_530)))
(let ((.def_565 (and .def_531 .def_564)))
(let ((.def_526 (not b.bool_atom__AT2)))
(let ((.def_566 (or .def_526 .def_565)))
(let ((.def_464 (<= 0.0 b.speed_y__AT2)))
(let ((.def_523 (not .def_464)))
(let ((.def_437 (* (- 1.0) b.x__AT2)))
(let ((.def_438 (* b.x__AT2 .def_437)))
(let ((.def_522 (= b.y__AT2 .def_438)))
(let ((.def_524 (and .def_522 .def_523)))
(let ((.def_525 (= b.bool_atom__AT2 .def_524)))
(let ((.def_567 (and .def_525 .def_566)))
(let ((.def_570 (and .def_567 .def_569)))
(let ((.def_571 (and .def_496 .def_570)))
(let ((.def_572 (and .def_499 .def_571)))
(let ((.def_573 (or .def_476 .def_572)))
(let ((.def_574 (or b.EVENT.1__AT2 .def_573)))
(let ((.def_582 (and .def_574 .def_581)))
(let ((.def_601 (and .def_582 .def_600)))
(let ((.def_483 (= b.time__AT2 b.time__AT3)))
(let ((.def_497 (and .def_483 .def_496)))
(let ((.def_500 (and .def_497 .def_499)))
(let ((.def_503 (and .def_500 .def_502)))
(let ((.def_515 (and .def_503 .def_514)))
(let ((.def_518 (and .def_515 .def_517)))
(let ((.def_519 (or .def_432 .def_518)))
(let ((.def_486 (* (- 1.0) b.time__AT3)))
(let ((.def_489 (+ b.delta__AT2 .def_486)))
(let ((.def_490 (+ b.time__AT2 .def_489)))
(let ((.def_491 (= .def_490 0.0 )))
(let ((.def_492 (or .def_478 .def_491)))
(let ((.def_493 (or b.EVENT.1__AT2 .def_492)))
(let ((.def_484 (or .def_476 .def_483)))
(let ((.def_485 (or b.EVENT.1__AT2 .def_484)))
(let ((.def_494 (and .def_485 .def_493)))
(let ((.def_520 (and .def_494 .def_519)))
(let ((.def_480 (= .def_478 b.event_is_timed__AT3)))
(let ((.def_477 (= b.event_is_timed__AT2 .def_476)))
(let ((.def_481 (and .def_477 .def_480)))
(let ((.def_521 (and .def_481 .def_520)))
(let ((.def_602 (and .def_521 .def_601)))
(let ((.def_606 (and .def_602 .def_605)))
(let ((.def_610 (and .def_606 .def_609)))
(let ((.def_611 (and .def_432 .def_610)))
(let ((.def_630 (and .def_611 .def_629)))
(let ((.def_638 (and .def_630 .def_637)))
(let ((.def_465 (* .def_88 b.delta__AT2)))
(let ((.def_466 (+ b.speed_y__AT2 .def_465)))
(let ((.def_470 (<= .def_466 0.0 )))
(let ((.def_469 (<= b.speed_y__AT2 0.0 )))
(let ((.def_471 (and .def_469 .def_470)))
(let ((.def_467 (<= 0.0 .def_466)))
(let ((.def_468 (and .def_464 .def_467)))
(let ((.def_472 (or .def_468 .def_471)))
(let ((.def_456 (+ .def_454 .def_455)))
(let ((.def_457 (* (- 1.0) .def_438)))
(let ((.def_460 (+ .def_457 .def_456)))
(let ((.def_461 (+ b.y__AT2 .def_460)))
(let ((.def_462 (<= 0.0 .def_461)))
(let ((.def_439 (<= .def_438 b.y__AT2)))
(let ((.def_463 (and .def_439 .def_462)))
(let ((.def_473 (and .def_463 .def_472)))
(let ((.def_474 (and .def_65 .def_473)))
(let ((.def_168 (not b.counter.0__AT1)))
(let ((.def_158 (not b.counter.1__AT1)))
(let ((.def_444 (and .def_158 .def_168)))
(let ((.def_448 (or b.counter.3__AT1 .def_444)))
(let ((.def_445 (or b.counter.2__AT1 .def_444)))
(let ((.def_163 (not b.counter.2__AT1)))
(let ((.def_443 (or .def_158 .def_163)))
(let ((.def_446 (and .def_443 .def_445)))
(let ((.def_177 (not b.counter.3__AT1)))
(let ((.def_447 (or .def_177 .def_446)))
(let ((.def_449 (and .def_447 .def_448)))
(let ((.def_440 (and .def_65 .def_439)))
(let ((.def_435 (or .def_432 .def_434)))
(let ((.def_425 (or .def_344 .def_354)))
(let ((.def_429 (or b.counter.3__AT2 .def_425)))
(let ((.def_426 (or b.counter.2__AT2 .def_425)))
(let ((.def_424 (or .def_349 .def_354)))
(let ((.def_427 (and .def_424 .def_426)))
(let ((.def_428 (or .def_363 .def_427)))
(let ((.def_430 (and .def_428 .def_429)))
(let ((.def_436 (and .def_430 .def_435)))
(let ((.def_441 (and .def_436 .def_440)))
(let ((.def_419 (<= 0.0 b.delta__AT1)))
(let ((.def_247 (not b.EVENT.0__AT1)))
(let ((.def_245 (not b.EVENT.1__AT1)))
(let ((.def_288 (and .def_245 .def_247)))
(let ((.def_290 (not .def_288)))
(let ((.def_420 (or .def_290 .def_419)))
(let ((.def_421 (or b.EVENT.1__AT1 .def_420)))
(let ((.def_329 (= b.bool_atom__AT1 b.bool_atom__AT2)))
(let ((.def_325 (= b.counter.0__AT1 b.counter.0__AT2)))
(let ((.def_322 (= b.counter.1__AT1 b.counter.1__AT2)))
(let ((.def_319 (= b.counter.2__AT1 b.counter.2__AT2)))
(let ((.def_317 (= b.counter.3__AT1 b.counter.3__AT2)))
(let ((.def_320 (and .def_317 .def_319)))
(let ((.def_323 (and .def_320 .def_322)))
(let ((.def_326 (and .def_323 .def_325)))
(let ((.def_415 (and .def_326 .def_329)))
(let ((.def_416 (or .def_290 .def_415)))
(let ((.def_417 (or b.EVENT.1__AT1 .def_416)))
(let ((.def_404 (* .def_72 b.delta__AT1)))
(let ((.def_405 (* (- 1.0) b.speed_y__AT2)))
(let ((.def_408 (+ .def_405 .def_404)))
(let ((.def_409 (+ b.speed_y__AT1 .def_408)))
(let ((.def_410 (= .def_409 0.0 )))
(let ((.def_395 (* (- 1.0) b.y__AT2)))
(let ((.def_267 (* b.speed_y__AT1 b.delta__AT1)))
(let ((.def_399 (+ .def_267 .def_395)))
(let ((.def_265 (* b.delta__AT1 b.delta__AT1)))
(let ((.def_266 (* .def_75 .def_265)))
(let ((.def_400 (+ .def_266 .def_399)))
(let ((.def_401 (+ b.y__AT1 .def_400)))
(let ((.def_402 (= .def_401 0.0 )))
(let ((.def_308 (= b.x__AT1 b.x__AT2)))
(let ((.def_403 (and .def_308 .def_402)))
(let ((.def_411 (and .def_403 .def_410)))
(let ((.def_412 (or .def_290 .def_411)))
(let ((.def_311 (= b.y__AT1 b.y__AT2)))
(let ((.def_390 (and .def_308 .def_311)))
(let ((.def_314 (= b.speed_y__AT1 b.speed_y__AT2)))
(let ((.def_391 (and .def_314 .def_390)))
(let ((.def_387 (= b.delta__AT1 0.0 )))
(let ((.def_388 (and .def_288 .def_387)))
(let ((.def_389 (not .def_388)))
(let ((.def_392 (or .def_389 .def_391)))
(let ((.def_393 (or b.EVENT.1__AT1 .def_392)))
(let ((.def_380 (and .def_314 .def_326)))
(let ((.def_381 (or b.bool_atom__AT1 .def_380)))
(let ((.def_355 (or b.counter.0__AT1 .def_354)))
(let ((.def_353 (or .def_168 b.counter.0__AT2)))
(let ((.def_356 (and .def_353 .def_355)))
(let ((.def_357 (and .def_344 .def_356)))
(let ((.def_358 (or b.counter.1__AT1 .def_357)))
(let ((.def_352 (or .def_158 b.counter.1__AT2)))
(let ((.def_359 (and .def_352 .def_358)))
(let ((.def_371 (and .def_349 .def_359)))
(let ((.def_372 (or b.counter.2__AT1 .def_371)))
(let ((.def_366 (and .def_168 .def_344)))
(let ((.def_367 (or b.counter.1__AT1 .def_366)))
(let ((.def_368 (and .def_352 .def_367)))
(let ((.def_369 (and b.counter.2__AT2 .def_368)))
(let ((.def_370 (or .def_163 .def_369)))
(let ((.def_373 (and .def_370 .def_372)))
(let ((.def_374 (and b.counter.3__AT2 .def_373)))
(let ((.def_375 (or b.counter.3__AT1 .def_374)))
(let ((.def_360 (and b.counter.2__AT2 .def_359)))
(let ((.def_361 (or b.counter.2__AT1 .def_360)))
(let ((.def_347 (or b.counter.1__AT1 b.counter.1__AT2)))
(let ((.def_345 (and b.counter.0__AT2 .def_344)))
(let ((.def_346 (or .def_158 .def_345)))
(let ((.def_348 (and .def_346 .def_347)))
(let ((.def_350 (and .def_348 .def_349)))
(let ((.def_351 (or .def_163 .def_350)))
(let ((.def_362 (and .def_351 .def_361)))
(let ((.def_364 (and .def_362 .def_363)))
(let ((.def_365 (or .def_177 .def_364)))
(let ((.def_376 (and .def_365 .def_375)))
(let ((.def_154 (* b.speed_y__AT1 b.speed_y__AT1)))
(let ((.def_342 (= .def_154 .def_341)))
(let ((.def_339 (+ b.speed_y__AT1 b.speed_y__AT2)))
(let ((.def_340 (= .def_339 0.0 )))
(let ((.def_343 (and .def_340 .def_342)))
(let ((.def_377 (and .def_343 .def_376)))
(let ((.def_338 (not b.bool_atom__AT1)))
(let ((.def_378 (or .def_338 .def_377)))
(let ((.def_276 (<= 0.0 b.speed_y__AT1)))
(let ((.def_335 (not .def_276)))
(let ((.def_250 (* (- 1.0) b.x__AT1)))
(let ((.def_251 (* b.x__AT1 .def_250)))
(let ((.def_334 (= b.y__AT1 .def_251)))
(let ((.def_336 (and .def_334 .def_335)))
(let ((.def_337 (= b.bool_atom__AT1 .def_336)))
(let ((.def_379 (and .def_337 .def_378)))
(let ((.def_382 (and .def_379 .def_381)))
(let ((.def_383 (and .def_308 .def_382)))
(let ((.def_384 (and .def_311 .def_383)))
(let ((.def_385 (or .def_288 .def_384)))
(let ((.def_386 (or b.EVENT.1__AT1 .def_385)))
(let ((.def_394 (and .def_386 .def_393)))
(let ((.def_413 (and .def_394 .def_412)))
(let ((.def_295 (= b.time__AT1 b.time__AT2)))
(let ((.def_309 (and .def_295 .def_308)))
(let ((.def_312 (and .def_309 .def_311)))
(let ((.def_315 (and .def_312 .def_314)))
(let ((.def_327 (and .def_315 .def_326)))
(let ((.def_330 (and .def_327 .def_329)))
(let ((.def_331 (or .def_245 .def_330)))
(let ((.def_298 (* (- 1.0) b.time__AT2)))
(let ((.def_301 (+ b.delta__AT1 .def_298)))
(let ((.def_302 (+ b.time__AT1 .def_301)))
(let ((.def_303 (= .def_302 0.0 )))
(let ((.def_304 (or .def_290 .def_303)))
(let ((.def_305 (or b.EVENT.1__AT1 .def_304)))
(let ((.def_296 (or .def_288 .def_295)))
(let ((.def_297 (or b.EVENT.1__AT1 .def_296)))
(let ((.def_306 (and .def_297 .def_305)))
(let ((.def_332 (and .def_306 .def_331)))
(let ((.def_292 (= .def_290 b.event_is_timed__AT2)))
(let ((.def_289 (= b.event_is_timed__AT1 .def_288)))
(let ((.def_293 (and .def_289 .def_292)))
(let ((.def_333 (and .def_293 .def_332)))
(let ((.def_414 (and .def_333 .def_413)))
(let ((.def_418 (and .def_414 .def_417)))
(let ((.def_422 (and .def_418 .def_421)))
(let ((.def_423 (and .def_245 .def_422)))
(let ((.def_442 (and .def_423 .def_441)))
(let ((.def_450 (and .def_442 .def_449)))
(let ((.def_277 (* .def_88 b.delta__AT1)))
(let ((.def_278 (+ b.speed_y__AT1 .def_277)))
(let ((.def_282 (<= .def_278 0.0 )))
(let ((.def_281 (<= b.speed_y__AT1 0.0 )))
(let ((.def_283 (and .def_281 .def_282)))
(let ((.def_279 (<= 0.0 .def_278)))
(let ((.def_280 (and .def_276 .def_279)))
(let ((.def_284 (or .def_280 .def_283)))
(let ((.def_268 (+ .def_266 .def_267)))
(let ((.def_269 (* (- 1.0) .def_251)))
(let ((.def_272 (+ .def_269 .def_268)))
(let ((.def_273 (+ b.y__AT1 .def_272)))
(let ((.def_274 (<= 0.0 .def_273)))
(let ((.def_252 (<= .def_251 b.y__AT1)))
(let ((.def_275 (and .def_252 .def_274)))
(let ((.def_285 (and .def_275 .def_284)))
(let ((.def_286 (and .def_65 .def_285)))
(let ((.def_34 (not b.counter.0__AT0)))
(let ((.def_32 (not b.counter.1__AT0)))
(let ((.def_35 (and .def_32 .def_34)))
(let ((.def_260 (or .def_35 b.counter.3__AT0)))
(let ((.def_257 (or .def_35 b.counter.2__AT0)))
(let ((.def_37 (not b.counter.2__AT0)))
(let ((.def_256 (or .def_32 .def_37)))
(let ((.def_258 (and .def_256 .def_257)))
(let ((.def_40 (not b.counter.3__AT0)))
(let ((.def_259 (or .def_40 .def_258)))
(let ((.def_261 (and .def_259 .def_260)))
(let ((.def_253 (and .def_65 .def_252)))
(let ((.def_248 (or .def_245 .def_247)))
(let ((.def_238 (or .def_158 .def_168)))
(let ((.def_242 (or b.counter.3__AT1 .def_238)))
(let ((.def_239 (or b.counter.2__AT1 .def_238)))
(let ((.def_237 (or .def_163 .def_168)))
(let ((.def_240 (and .def_237 .def_239)))
(let ((.def_241 (or .def_177 .def_240)))
(let ((.def_243 (and .def_241 .def_242)))
(let ((.def_249 (and .def_243 .def_248)))
(let ((.def_254 (and .def_249 .def_253)))
(let ((.def_232 (<= 0.0 b.delta__AT0)))
(let ((.def_53 (not b.EVENT.0__AT0)))
(let ((.def_51 (not b.EVENT.1__AT0)))
(let ((.def_100 (and .def_51 .def_53)))
(let ((.def_102 (not .def_100)))
(let ((.def_233 (or .def_102 .def_232)))
(let ((.def_234 (or b.EVENT.1__AT0 .def_233)))
(let ((.def_142 (= b.bool_atom__AT0 b.bool_atom__AT1)))
(let ((.def_137 (= b.counter.0__AT0 b.counter.0__AT1)))
(let ((.def_134 (= b.counter.1__AT0 b.counter.1__AT1)))
(let ((.def_131 (= b.counter.2__AT0 b.counter.2__AT1)))
(let ((.def_129 (= b.counter.3__AT0 b.counter.3__AT1)))
(let ((.def_132 (and .def_129 .def_131)))
(let ((.def_135 (and .def_132 .def_134)))
(let ((.def_138 (and .def_135 .def_137)))
(let ((.def_228 (and .def_138 .def_142)))
(let ((.def_229 (or .def_102 .def_228)))
(let ((.def_230 (or b.EVENT.1__AT0 .def_229)))
(let ((.def_217 (* b.delta__AT0 .def_72)))
(let ((.def_218 (* (- 1.0) b.speed_y__AT1)))
(let ((.def_221 (+ .def_218 .def_217)))
(let ((.def_222 (+ b.speed_y__AT0 .def_221)))
(let ((.def_223 (= .def_222 0.0 )))
(let ((.def_209 (* (- 1.0) b.y__AT1)))
(let ((.def_78 (* b.delta__AT0 b.speed_y__AT0)))
(let ((.def_212 (+ .def_78 .def_209)))
(let ((.def_71 (* b.delta__AT0 b.delta__AT0)))
(let ((.def_76 (* .def_71 .def_75)))
(let ((.def_213 (+ .def_76 .def_212)))
(let ((.def_214 (+ b.y__AT0 .def_213)))
(let ((.def_215 (= .def_214 0.0 )))
(let ((.def_120 (= b.x__AT0 b.x__AT1)))
(let ((.def_216 (and .def_120 .def_215)))
(let ((.def_224 (and .def_216 .def_223)))
(let ((.def_225 (or .def_102 .def_224)))
(let ((.def_123 (= b.y__AT0 b.y__AT1)))
(let ((.def_204 (and .def_120 .def_123)))
(let ((.def_126 (= b.speed_y__AT0 b.speed_y__AT1)))
(let ((.def_205 (and .def_126 .def_204)))
(let ((.def_201 (= b.delta__AT0 0.0 )))
(let ((.def_202 (and .def_100 .def_201)))
(let ((.def_203 (not .def_202)))
(let ((.def_206 (or .def_203 .def_205)))
(let ((.def_207 (or b.EVENT.1__AT0 .def_206)))
(let ((.def_194 (and .def_126 .def_138)))
(let ((.def_195 (or b.bool_atom__AT0 .def_194)))
(let ((.def_169 (or b.counter.0__AT0 .def_168)))
(let ((.def_167 (or .def_34 b.counter.0__AT1)))
(let ((.def_170 (and .def_167 .def_169)))
(let ((.def_171 (and .def_158 .def_170)))
(let ((.def_172 (or b.counter.1__AT0 .def_171)))
(let ((.def_166 (or .def_32 b.counter.1__AT1)))
(let ((.def_173 (and .def_166 .def_172)))
(let ((.def_185 (and .def_163 .def_173)))
(let ((.def_186 (or b.counter.2__AT0 .def_185)))
(let ((.def_180 (and .def_34 .def_158)))
(let ((.def_181 (or b.counter.1__AT0 .def_180)))
(let ((.def_182 (and .def_166 .def_181)))
(let ((.def_183 (and b.counter.2__AT1 .def_182)))
(let ((.def_184 (or .def_37 .def_183)))
(let ((.def_187 (and .def_184 .def_186)))
(let ((.def_188 (and b.counter.3__AT1 .def_187)))
(let ((.def_189 (or b.counter.3__AT0 .def_188)))
(let ((.def_174 (and b.counter.2__AT1 .def_173)))
(let ((.def_175 (or b.counter.2__AT0 .def_174)))
(let ((.def_161 (or b.counter.1__AT0 b.counter.1__AT1)))
(let ((.def_159 (and b.counter.0__AT1 .def_158)))
(let ((.def_160 (or .def_32 .def_159)))
(let ((.def_162 (and .def_160 .def_161)))
(let ((.def_164 (and .def_162 .def_163)))
(let ((.def_165 (or .def_37 .def_164)))
(let ((.def_176 (and .def_165 .def_175)))
(let ((.def_178 (and .def_176 .def_177)))
(let ((.def_179 (or .def_40 .def_178)))
(let ((.def_190 (and .def_179 .def_189)))
(let ((.def_155 (* b.speed_y__AT0 b.speed_y__AT0)))
(let ((.def_156 (= .def_154 .def_155)))
(let ((.def_152 (+ b.speed_y__AT0 b.speed_y__AT1)))
(let ((.def_153 (= .def_152 0.0 )))
(let ((.def_157 (and .def_153 .def_156)))
(let ((.def_191 (and .def_157 .def_190)))
(let ((.def_151 (not b.bool_atom__AT0)))
(let ((.def_192 (or .def_151 .def_191)))
(let ((.def_87 (<= 0.0 b.speed_y__AT0)))
(let ((.def_148 (not .def_87)))
(let ((.def_58 (* (- 1.0) b.x__AT0)))
(let ((.def_59 (* b.x__AT0 .def_58)))
(let ((.def_147 (= b.y__AT0 .def_59)))
(let ((.def_149 (and .def_147 .def_148)))
(let ((.def_150 (= b.bool_atom__AT0 .def_149)))
(let ((.def_193 (and .def_150 .def_192)))
(let ((.def_196 (and .def_193 .def_195)))
(let ((.def_197 (and .def_120 .def_196)))
(let ((.def_198 (and .def_123 .def_197)))
(let ((.def_199 (or .def_100 .def_198)))
(let ((.def_200 (or b.EVENT.1__AT0 .def_199)))
(let ((.def_208 (and .def_200 .def_207)))
(let ((.def_226 (and .def_208 .def_225)))
(let ((.def_107 (= b.time__AT0 b.time__AT1)))
(let ((.def_121 (and .def_107 .def_120)))
(let ((.def_124 (and .def_121 .def_123)))
(let ((.def_127 (and .def_124 .def_126)))
(let ((.def_139 (and .def_127 .def_138)))
(let ((.def_143 (and .def_139 .def_142)))
(let ((.def_144 (or .def_51 .def_143)))
(let ((.def_110 (* (- 1.0) b.time__AT1)))
(let ((.def_113 (+ b.delta__AT0 .def_110)))
(let ((.def_114 (+ b.time__AT0 .def_113)))
(let ((.def_115 (= .def_114 0.0 )))
(let ((.def_116 (or .def_102 .def_115)))
(let ((.def_117 (or b.EVENT.1__AT0 .def_116)))
(let ((.def_108 (or .def_100 .def_107)))
(let ((.def_109 (or b.EVENT.1__AT0 .def_108)))
(let ((.def_118 (and .def_109 .def_117)))
(let ((.def_145 (and .def_118 .def_144)))
(let ((.def_104 (= .def_102 b.event_is_timed__AT1)))
(let ((.def_101 (= b.event_is_timed__AT0 .def_100)))
(let ((.def_105 (and .def_101 .def_104)))
(let ((.def_146 (and .def_105 .def_145)))
(let ((.def_227 (and .def_146 .def_226)))
(let ((.def_231 (and .def_227 .def_230)))
(let ((.def_235 (and .def_231 .def_234)))
(let ((.def_236 (and .def_51 .def_235)))
(let ((.def_255 (and .def_236 .def_254)))
(let ((.def_262 (and .def_255 .def_261)))
(let ((.def_89 (* b.delta__AT0 .def_88)))
(let ((.def_90 (+ b.speed_y__AT0 .def_89)))
(let ((.def_94 (<= .def_90 0.0 )))
(let ((.def_93 (<= b.speed_y__AT0 0.0 )))
(let ((.def_95 (and .def_93 .def_94)))
(let ((.def_91 (<= 0.0 .def_90)))
(let ((.def_92 (and .def_87 .def_91)))
(let ((.def_96 (or .def_92 .def_95)))
(let ((.def_79 (+ .def_76 .def_78)))
(let ((.def_80 (* (- 1.0) .def_59)))
(let ((.def_83 (+ .def_80 .def_79)))
(let ((.def_84 (+ b.y__AT0 .def_83)))
(let ((.def_85 (<= 0.0 .def_84)))
(let ((.def_60 (<= .def_59 b.y__AT0)))
(let ((.def_86 (and .def_60 .def_85)))
(let ((.def_97 (and .def_86 .def_96)))
(let ((.def_98 (and .def_65 .def_97)))
(let ((.def_66 (and .def_60 .def_65)))
(let ((.def_54 (or .def_51 .def_53)))
(let ((.def_44 (or .def_32 .def_34)))
(let ((.def_48 (or b.counter.3__AT0 .def_44)))
(let ((.def_45 (or b.counter.2__AT0 .def_44)))
(let ((.def_43 (or .def_34 .def_37)))
(let ((.def_46 (and .def_43 .def_45)))
(let ((.def_47 (or .def_40 .def_46)))
(let ((.def_49 (and .def_47 .def_48)))
(let ((.def_55 (and .def_49 .def_54)))
(let ((.def_67 (and .def_55 .def_66)))
(let ((.def_38 (and .def_35 .def_37)))
(let ((.def_41 (and .def_38 .def_40)))
(let ((.def_29 (= b.y__AT0 10.0 )))
(let ((.def_25 (= b.x__AT0 0.0 )))
(let ((.def_21 (= b.time__AT0 0.0 )))
(let ((.def_23 (and .def_21 b.event_is_timed__AT0)))
(let ((.def_26 (and .def_23 .def_25)))
(let ((.def_30 (and .def_26 .def_29)))
(let ((.def_42 (and .def_30 .def_41)))
(let ((.def_68 (and .def_42 .def_67)))
(let ((.def_10 (and .def_6 .def_9)))
(let ((.def_16 (or .def_10 b.counter.3__AT4)))
(let ((.def_11 (or b.counter.2__AT4 .def_10)))
(let ((.def_7 (or .def_4 .def_6)))
(let ((.def_12 (and .def_7 .def_11)))
(let ((.def_15 (or .def_12 .def_14)))
(let ((.def_17 (and .def_15 .def_16)))
(let ((.def_18 (not .def_17)))
(let ((.def_69 (and .def_18 .def_68)))
(let ((.def_99 (and .def_69 .def_98)))
(let ((.def_263 (and .def_99 .def_262)))
(let ((.def_287 (and .def_263 .def_286)))
(let ((.def_451 (and .def_287 .def_450)))
(let ((.def_475 (and .def_451 .def_474)))
(let ((.def_639 (and .def_475 .def_638)))
(let ((.def_663 (and .def_639 .def_662)))
(let ((.def_819 (and .def_663 .def_818)))
(let ((.def_843 (and .def_819 .def_842)))
.def_843))))))))))))))))))))))))))))))))))))))))))))))))))))))))))))))))))))))))))))))))))))))))))))))))))))))))))))))))))))))))))))))))))))))))))))))))))))))))))))))))))))))))))))))))))))))))))))))))))))))))))))))))))))))))))))))))))))))))))))))))))))))))))))))))))))))))))))))))))))))))))))))))))))))))))))))))))))))))))))))))))))))))))))))))))))))))))))))))))))))))))))))))))))))))))))))))))))))))))))))))))))))))))))))))))))))))))))))))))))))))))))))))))))))))))))))))))))))))))))))))))))))))))))))))))))))))))))))))))))))))))))))))))))))))))))))))))))))))))))))))))))))))))))))))))))))))))))))))))))))))))))))))))))))))))))))))))))))))))))))))))))))))))))))))))))))))))))))))))))))))))))))))))))))))))))))))))))))))))))))))))))))))))))
(check-sat)
(exit)
